c turning on binary mode checking
c parsing input formula with 259840 variables and 1039934 clauses
c finished parsing, read 23946257 bytes from proof file
c detected empty clause; start verification via backward checking
c 23094 of 1039934 clauses in core                            
c 30779 of 608327 lemmas in core using 237885 resolution steps
c 0 RAT lemmas in core; 2451 redundant literals in core lemmas
s VERIFIED
c verification time: 3.384 seconds
